File "./GRP664-12/SMT.v", line 6, characters 0-26:
Warning: Interpreting this declaration as if a global declaration prefixed by
"Local", i.e. as a global declaration which shall not be available without
qualification when imported. [local-declaration,vernacular,default]
File "./GRP664-12/SMT.v", line 7, characters 0-28:
Warning: Interpreting this declaration as if a global declaration prefixed by
"Local", i.e. as a global declaration which shall not be available without
qualification when imported. [local-declaration,vernacular,default]
File "./GRP664-12/SMT.v", line 8, characters 0-26:
Warning: Interpreting this declaration as if a global declaration prefixed by
"Local", i.e. as a global declaration which shall not be available without
qualification when imported. [local-declaration,vernacular,default]
File "./GRP664-12/SMT.v", line 9, characters 0-18:
Warning: Interpreting this declaration as if a global declaration prefixed by
"Local", i.e. as a global declaration which shall not be available without
qualification when imported. [local-declaration,vernacular,default]
File "./GRP664-12/SMT.v", line 10, characters 0-16:
Warning: Interpreting this declaration as if a global declaration prefixed by
"Local", i.e. as a global declaration which shall not be available without
qualification when imported. [local-declaration,vernacular,default]
File "./GRP664-12/SMT.v", line 11, characters 0-16:
Warning: Interpreting this declaration as if a global declaration prefixed by
"Local", i.e. as a global declaration which shall not be available without
qualification when imported. [local-declaration,vernacular,default]
File "./GRP664-12/SMT.v", line 12, characters 0-16:
Warning: Interpreting this declaration as if a global declaration prefixed by
"Local", i.e. as a global declaration which shall not be available without
qualification when imported. [local-declaration,vernacular,default]
File "./GRP664-12/SMT.v", line 13, characters 0-16:
Warning: Interpreting this declaration as if a global declaration prefixed by
"Local", i.e. as a global declaration which shall not be available without
qualification when imported. [local-declaration,vernacular,default]
veriT --proof-prune --proof-merge --proof-with-sharing --cnf-definitional --disable-ackermann --input=smtlib2 --proof=/tmp/verit_coq0d1f8b.vtlog /tmp/verit_coq0d1f8b.smt2 2> /tmp/warnings_verited7fc8.log
veriT dev - the SMT-solver veriT (UFRN/LORIA).
success
success
success
success
success
success
success
success
success
success
success
success
success
success
success
success
success
success
success
unknown
success
success
Verit = 0.00007
(set-option :print-success true)
(set-option :produce-assignments true)
(set-option :produce-proofs true)
(set-logic QF_UFLIA)
(declare-fun op_0 () Int)
(declare-fun op_2 (Int Int ) Int)
(declare-fun op_1 () Int)
(declare-fun op_3 () Int)
(declare-fun op_4 () Int)
(assert (not (= (op_2 (op_2 op_0 op_1) (op_2 op_3 op_4)) (op_2 op_0 (op_2 op_1 (op_2 op_3 op_4))))))
(check-sat)
(get-model)
File "./GRP664-12/SMT.v", line 29, characters 2-5:
Error:
CVC4 returned sat. Here is the model:

x2 := 0
x3 := 1
mult := fun BOUND_VARIABLE_331 BOUND_VARIABLE_332 => if BOUND_VARIABLE_331 = -2 then if BOUND_VARIABLE_332 = 3 then -3 else -4 else if BOUND_VARIABLE_331 = -1 then if BOUND_VARIABLE_332 = 2 then 3 else -4 else if BOUND_VARIABLE_331 = 1 then if BOUND_VARIABLE_332 = 3 then 4 else -4 else if BOUND_VARIABLE_331 = 0 then if BOUND_VARIABLE_332 = 1 then -2 else -4 else -4
x1 := -1
x0 := 2

